
  24    0


   0  11 2 3 4 5 6 7 10 11 21 22 23 
   9   5 20 19 17 14 13 
   4   3 17 16 14 
   2   3 18 13 12 
  10   2 12 8 
   1   2 14 9 
   2   2 15 12 
   2   1 15 
   6   1 12 
   1   1 16 
   9   1 13 
   4   1 24
  10   1 24
   2   1 24
   9   1 24
   6   1 24
  10   1 24
   9   1 24
   5   1 24
   9   1 24
   8   1 24
   2   1 24
   1   1 24
   0   0 
